







































































































75 38 51 14 53 39 30 
52 29 66 12 50 28 5 58 
34 24 16 63 76 32 19 
47 54 17 0 36 44 73 
13 15 4 35 42 55 40 60 
49 8 3 21 67 11 2 
68 70 56 57 64 69 23 74 
72 71 37 7 22 25 31 65 
6 33 41 20 61 59 26 
45 9 1 62 48 18 27 
46 10 43 
